% seed = 0

mint = 32;
% maxt = 204;

nActs = 92;
dur = [0,1,3,5,2,2,3,5,2,2,3,2,2,6,1,2,1,1,1,4,3,1,1,3,1,3,2,2,2,1,1,2,3,1,4,2,1,4,3,2,2,1,2,3,1,3,4,1,2,1,4,1,2,2,2,4,1,2,2,1,4,3,1,2,5,2,3,2,2,3,1,2,3,2,2,4,1,3,4,3,1,2,2,3,1,1,1,3,2,3,2,0];

nSkills = 9;
sreq = [| 0,0,0,0,0,0,0,0,0,
	| 0,0,1,1,1,0,0,0,0,
	| 0,0,0,0,1,0,0,0,0,
	| 0,0,0,0,0,0,0,1,0,
	| 0,0,0,0,0,0,0,0,1,
	| 0,0,0,0,0,0,0,2,0,
	| 0,0,1,0,0,0,0,1,0,
	| 1,0,0,0,0,0,0,1,1,
	| 1,0,0,0,2,1,0,0,0,
	| 0,0,0,0,0,0,1,1,0,
	| 0,0,0,0,0,0,1,0,1,
	| 0,0,0,0,0,1,2,0,0,
	| 0,1,0,0,0,0,0,1,0,
	| 0,0,0,0,0,0,0,1,0,
	| 0,0,0,0,1,1,1,0,0,
	| 1,0,0,0,0,1,0,1,0,
	| 0,0,0,0,0,0,1,0,1,
	| 1,0,0,0,1,1,0,1,0,
	| 0,0,0,0,0,2,1,1,0,
	| 0,0,0,0,1,0,0,0,0,
	| 0,0,1,0,0,1,0,1,0,
	| 0,1,0,0,1,0,0,1,0,
	| 0,1,1,0,1,0,0,0,0,
	| 0,0,1,0,0,0,0,0,1,
	| 0,0,0,0,0,0,1,0,0,
	| 1,0,0,0,1,0,0,2,0,
	| 0,0,0,0,0,1,0,0,0,
	| 0,0,2,1,0,0,1,0,0,
	| 0,0,0,0,1,0,1,1,0,
	| 0,0,0,0,2,0,1,0,0,
	| 0,0,0,0,0,0,1,0,0,
	| 0,1,0,0,2,1,0,0,0,
	| 0,0,0,0,0,0,1,1,0,
	| 0,0,0,0,0,0,0,1,0,
	| 0,0,2,0,1,1,0,0,0,
	| 0,0,0,1,1,0,0,1,0,
	| 0,1,0,0,0,1,0,0,0,
	| 0,0,0,1,0,0,1,0,0,
	| 0,0,0,0,0,0,0,0,1,
	| 0,0,0,0,0,0,0,2,1,
	| 0,1,0,0,0,0,0,1,0,
	| 0,1,0,1,0,0,0,0,0,
	| 0,0,1,0,1,1,0,0,0,
	| 0,0,0,0,2,0,1,1,0,
	| 1,0,0,0,0,0,0,1,0,
	| 0,1,0,0,0,0,0,1,0,
	| 0,1,0,0,1,1,0,0,0,
	| 0,1,0,0,0,0,1,1,0,
	| 0,0,0,0,1,0,0,1,0,
	| 0,0,0,0,1,1,0,1,0,
	| 0,1,1,0,0,1,0,0,0,
	| 0,0,0,0,0,2,0,1,1,
	| 0,0,0,0,0,1,0,1,1,
	| 0,1,0,0,0,0,0,0,1,
	| 1,0,0,0,0,0,0,0,0,
	| 0,0,0,0,0,1,0,0,1,
	| 1,0,0,0,1,0,2,0,0,
	| 1,1,0,0,1,0,1,0,0,
	| 0,0,0,0,0,1,1,0,0,
	| 0,1,0,0,0,0,0,0,0,
	| 0,0,0,0,0,1,0,0,0,
	| 1,0,0,0,0,0,0,0,1,
	| 0,0,0,0,1,1,0,0,0,
	| 0,0,0,0,0,1,0,0,0,
	| 0,0,1,0,1,1,0,0,0,
	| 1,0,0,0,0,2,0,0,1,
	| 0,0,0,0,0,0,0,1,0,
	| 0,1,0,0,1,1,0,1,0,
	| 0,1,1,1,0,1,0,0,0,
	| 0,0,0,0,0,0,1,0,0,
	| 0,1,0,0,1,0,0,0,0,
	| 0,0,0,0,1,2,0,1,0,
	| 0,0,2,0,0,2,0,0,0,
	| 0,0,0,0,0,0,0,0,1,
	| 0,0,0,0,2,0,1,0,0,
	| 0,0,0,0,0,2,0,1,0,
	| 0,0,0,0,0,1,0,0,0,
	| 0,0,0,1,0,0,0,1,0,
	| 0,0,0,0,0,1,1,1,1,
	| 0,0,0,0,0,1,0,1,0,
	| 0,0,0,1,0,0,0,0,1,
	| 1,0,0,0,0,0,0,0,0,
	| 0,0,0,0,0,0,0,1,0,
	| 0,1,0,0,1,1,0,1,0,
	| 0,0,0,0,1,1,0,0,0,
	| 0,0,0,0,0,1,1,2,0,
	| 0,0,0,0,0,0,0,0,1,
	| 0,0,0,0,0,3,0,1,0,
	| 0,0,0,1,0,0,0,0,0,
	| 0,1,0,0,1,0,0,0,0,
	| 0,0,0,0,1,0,0,0,0,
	| 0,0,0,0,0,0,0,0,0, |];

% SumOfsreq = 218;

nResources = 12;
mastery = [| true,true,true,false,false,false,false,false,true,
	| false,false,false,false,false,false,false,true,true,
	| false,false,false,false,false,false,true,true,true,
	| false,false,false,false,true,true,false,false,false,
	| false,false,false,false,true,true,false,false,false,
	| false,false,false,false,false,true,false,false,false,
	| false,true,true,false,false,false,true,true,true,
	| false,false,false,false,false,false,false,false,true,
	| false,false,false,true,true,true,false,false,false,
	| false,true,true,false,true,true,false,false,false,
	| false,false,false,false,false,false,true,true,true,
	| false,false,true,false,false,false,false,false,false, |];

nPrecs = 138;
pred = [1,1,1,2,2,2,3,3,3,4,5,5,6,6,6,7,7,7,8,8,9,10,11,11,12,13,13,14,14,15,15,16,16,16,17,17,18,18,19,19,20,20,21,21,22,23,23,23,24,25,26,26,27,27,27,28,28,28,29,30,31,32,33,33,33,34,34,34,35,35,35,36,36,36,37,38,39,39,40,41,42,43,44,45,46,46,47,48,48,49,49,50,50,51,52,53,54,55,55,56,57,58,59,60,61,62,63,64,65,66,67,67,68,69,70,71,72,72,73,73,74,75,76,77,78,79,80,81,82,83,84,85,86,87,88,89,90,91];
succ = [2,3,4,10,36,8,20,5,14,18,6,7,26,11,77,12,13,31,9,16,21,56,76,69,32,44,71,42,15,73,24,17,33,19,68,22,83,23,51,60,27,85,34,56,55,25,58,29,82,90,82,38,28,55,39,43,30,47,36,36,59,39,57,37,48,50,35,45,41,65,61,81,46,54,62,40,65,70,65,70,54,91,52,86,49,64,76,53,63,74,88,57,62,89,78,86,79,67,71,66,67,85,62,79,72,75,82,68,83,75,81,88,76,70,89,75,74,78,77,87,86,83,84,80,85,84,81,89,90,84,87,87,91,90,91,92,92,92];

nUnrels = 3113;
unpred = [2,2,2,2,2,2,2,2,2,2,2,2,2,2,2,2,2,2,2,2,2,2,2,2,2,2,2,2,2,2,2,2,2,2,2,2,3,3,3,3,3,3,3,3,3,3,3,3,3,3,3,3,3,3,3,3,3,3,3,3,3,3,3,3,3,3,3,4,4,4,4,4,4,4,4,4,4,4,4,4,4,4,4,4,4,4,4,4,4,4,4,4,4,4,4,4,4,4,4,4,4,4,4,4,4,4,4,4,4,4,4,4,4,4,4,4,4,4,4,4,4,4,4,4,4,4,4,4,4,4,5,5,5,5,5,5,5,5,5,5,5,5,5,5,5,5,5,5,5,5,5,5,5,5,5,5,5,5,5,5,5,5,5,5,5,5,5,5,5,5,5,5,5,5,5,5,5,5,5,5,5,5,5,5,6,6,6,6,6,6,6,6,6,6,6,6,6,6,6,6,6,6,6,6,6,6,6,6,6,6,6,6,6,6,6,6,6,6,6,6,6,6,6,6,6,6,6,6,6,6,6,6,6,6,6,6,6,6,6,6,6,6,6,6,6,6,6,6,6,6,6,6,7,7,7,7,7,7,7,7,7,7,7,7,7,7,7,7,7,7,7,7,7,7,7,7,7,7,7,7,7,7,7,7,7,7,7,7,7,7,7,7,7,7,7,7,7,7,7,7,7,7,7,7,7,7,7,7,7,7,7,7,7,7,7,7,8,8,8,8,8,8,8,8,8,8,8,8,8,8,8,8,8,8,8,8,8,8,8,8,8,8,8,8,8,8,8,8,8,8,8,8,8,9,9,9,9,9,9,9,9,9,9,9,9,9,9,9,9,9,9,9,9,9,9,9,9,9,9,9,9,9,9,9,9,9,9,9,9,9,9,9,9,9,9,9,9,9,9,9,9,9,9,9,9,9,9,10,10,10,10,10,10,10,10,10,10,10,10,10,10,10,10,10,10,10,10,10,10,10,10,10,10,10,10,10,10,10,10,10,10,10,10,10,10,10,10,10,10,10,10,10,10,10,10,10,10,10,10,10,10,10,10,10,10,10,10,10,10,10,10,10,10,10,10,10,10,10,10,10,10,11,11,11,11,11,11,11,11,11,11,11,11,11,11,11,11,11,11,11,11,11,11,11,11,11,11,11,11,11,11,11,11,11,11,11,11,11,11,11,11,11,11,11,11,11,11,11,11,11,11,11,11,11,11,11,11,11,11,11,11,11,11,11,11,11,11,11,11,11,11,11,11,11,12,12,12,12,12,12,12,12,12,12,12,12,12,12,12,12,12,12,12,12,12,12,12,12,12,12,12,12,12,12,12,12,12,12,12,12,12,12,12,12,12,12,12,12,12,12,12,12,12,12,12,12,12,12,12,12,12,12,12,12,12,12,12,12,12,12,12,12,12,12,13,13,13,13,13,13,13,13,13,13,13,13,13,13,13,13,13,13,13,13,13,13,13,13,13,13,13,13,13,13,13,13,13,13,13,13,13,13,13,13,13,13,13,13,13,13,13,13,13,13,13,13,13,13,13,13,13,13,13,13,13,13,13,13,13,13,13,13,14,14,14,14,14,14,14,14,14,14,14,14,14,14,14,14,14,14,14,14,14,14,14,14,14,14,14,14,14,14,14,14,14,14,14,14,14,14,14,14,14,14,14,14,14,14,14,14,14,14,14,14,14,14,14,14,14,14,14,14,14,14,14,15,15,15,15,15,15,15,15,15,15,15,15,15,15,15,15,15,15,15,15,15,15,15,15,15,15,15,15,15,15,15,15,15,15,15,15,15,15,15,15,15,15,15,15,15,15,15,15,15,15,15,15,15,15,15,15,15,15,15,15,15,15,15,15,15,15,15,16,16,16,16,16,16,16,16,16,16,16,16,16,16,16,16,16,16,16,16,16,16,16,16,16,16,16,16,16,16,16,16,16,16,16,16,16,16,16,16,16,16,16,16,16,16,17,17,17,17,17,17,17,17,17,17,17,17,17,17,17,17,17,17,17,17,17,17,17,17,17,17,17,17,17,17,17,17,17,17,17,17,17,17,17,17,17,17,17,17,17,17,17,17,17,17,17,17,17,17,17,17,17,17,17,18,18,18,18,18,18,18,18,18,18,18,18,18,18,18,18,18,18,18,18,18,18,18,18,18,18,18,18,18,18,18,18,18,18,18,18,18,18,18,18,18,18,18,18,18,18,18,18,18,18,19,19,19,19,19,19,19,19,19,19,19,19,19,19,19,19,19,19,19,19,19,19,19,19,19,19,19,19,19,19,19,19,19,19,19,19,19,19,19,19,19,19,19,19,19,19,19,19,19,19,19,19,19,19,19,19,19,19,19,19,19,19,19,19,19,20,20,20,20,20,20,20,20,20,20,20,20,20,20,20,20,20,20,20,20,20,20,20,20,20,20,20,20,20,20,20,20,20,20,20,20,20,20,20,20,21,21,21,21,21,21,21,21,21,21,21,21,21,21,21,21,21,21,21,21,21,21,21,21,21,21,21,21,21,21,21,21,21,21,21,21,21,21,21,21,21,21,21,22,22,22,22,22,22,22,22,22,22,22,22,22,22,22,22,22,22,22,22,22,22,22,22,22,22,22,22,22,22,22,22,22,22,22,22,22,22,22,22,22,22,22,22,22,22,22,22,22,22,22,22,22,22,22,22,22,23,23,23,23,23,23,23,23,23,23,23,23,23,23,23,23,23,23,23,23,23,23,23,23,23,23,23,23,23,23,23,23,23,23,23,23,23,23,23,23,23,23,23,23,23,23,23,24,24,24,24,24,24,24,24,24,24,24,24,24,24,24,24,24,24,24,24,24,24,24,24,24,24,24,24,24,24,24,24,24,24,24,24,24,24,24,24,24,24,24,24,24,24,24,24,24,24,24,24,24,24,24,24,24,24,24,24,24,24,24,24,24,25,25,25,25,25,25,25,25,25,25,25,25,25,25,25,25,25,25,25,25,25,25,25,25,25,25,25,25,25,25,25,25,25,25,25,25,25,25,25,25,25,25,25,25,25,25,25,25,25,25,25,25,25,25,25,25,25,25,25,25,25,25,25,25,25,26,26,26,26,26,26,26,26,26,26,26,26,26,26,26,26,26,26,26,26,26,26,26,26,26,26,26,26,26,26,26,26,26,26,26,26,26,26,26,26,26,26,26,26,26,26,26,26,26,26,26,26,26,26,26,26,26,27,27,27,27,27,27,27,27,27,27,27,27,27,27,27,27,27,27,27,27,27,27,27,27,27,27,27,27,27,27,27,27,27,27,27,28,28,28,28,28,28,28,28,28,28,28,28,28,28,28,28,28,28,28,28,28,28,28,28,28,28,28,28,28,28,28,28,28,28,28,28,28,28,28,28,28,28,28,29,29,29,29,29,29,29,29,29,29,29,29,29,29,29,29,29,29,29,29,29,29,29,29,29,29,29,29,29,29,29,29,29,29,29,29,29,29,29,29,29,29,29,29,29,30,30,30,30,30,30,30,30,30,30,30,30,30,30,30,30,30,30,30,30,30,30,30,30,30,30,30,30,30,30,30,30,30,30,30,30,30,30,30,30,30,30,30,30,31,31,31,31,31,31,31,31,31,31,31,31,31,31,31,31,31,31,31,31,31,31,31,31,31,31,31,31,31,31,31,31,31,31,31,31,31,31,31,31,31,31,31,31,31,31,31,31,31,31,31,31,31,32,32,32,32,32,32,32,32,32,32,32,32,32,32,32,32,32,32,32,32,32,32,32,32,32,32,32,32,32,32,32,32,32,32,32,32,32,32,32,32,32,32,32,32,32,32,32,32,32,32,32,33,33,33,33,33,33,33,33,33,33,33,33,33,33,33,33,33,33,33,33,33,33,33,33,33,33,33,33,33,33,33,33,33,33,33,33,33,33,33,33,34,34,34,34,34,34,34,34,34,34,34,34,34,34,34,34,34,34,34,34,34,34,34,34,34,34,34,34,34,34,34,34,34,35,35,35,35,35,35,35,35,35,35,35,35,35,35,35,35,35,35,35,35,35,35,35,35,35,35,35,35,35,35,35,35,35,35,35,35,35,35,35,35,35,36,36,36,36,36,36,36,36,36,36,36,36,36,36,36,36,36,36,36,36,36,36,36,36,36,36,36,36,36,36,36,36,36,36,36,36,36,36,36,37,37,37,37,37,37,37,37,37,37,37,37,37,37,37,37,37,37,37,37,37,37,37,37,37,37,37,37,37,37,37,37,37,37,37,37,37,37,37,37,37,37,37,37,37,37,37,37,38,38,38,38,38,38,38,38,38,38,38,38,38,38,38,38,38,38,38,38,38,38,38,38,38,38,38,38,38,38,38,38,38,38,38,38,38,38,38,38,38,38,38,38,38,38,38,39,39,39,39,39,39,39,39,39,39,39,39,39,39,39,39,39,39,39,39,39,39,39,39,39,39,39,39,39,39,39,39,39,39,39,39,39,39,39,39,39,39,39,39,39,40,40,40,40,40,40,40,40,40,40,40,40,40,40,40,40,40,40,40,40,40,40,40,40,40,40,40,40,40,40,40,40,40,40,40,40,40,40,40,40,40,40,40,40,40,40,41,41,41,41,41,41,41,41,41,41,41,41,41,41,41,41,41,41,41,41,41,41,41,41,41,41,41,41,41,41,41,41,41,41,41,41,41,41,41,41,41,41,41,41,41,41,41,41,42,42,42,42,42,42,42,42,42,42,42,42,42,42,42,42,42,42,42,42,42,42,42,42,42,42,42,42,42,42,42,42,42,42,42,42,42,42,42,42,42,42,42,42,43,43,43,43,43,43,43,43,43,43,43,43,43,43,43,43,43,43,43,43,43,43,43,43,43,43,43,43,43,43,43,43,43,43,43,43,43,43,43,43,43,43,43,43,43,43,43,44,44,44,44,44,44,44,44,44,44,44,44,44,44,44,44,44,44,44,44,44,44,44,44,44,44,44,44,44,44,44,44,44,44,44,44,44,44,44,44,44,44,45,45,45,45,45,45,45,45,45,45,45,45,45,45,45,45,45,45,45,45,45,45,45,45,45,45,45,45,45,45,45,45,45,45,45,45,45,45,45,45,45,45,45,45,46,46,46,46,46,46,46,46,46,46,46,46,46,46,46,46,46,46,46,46,46,46,46,46,46,46,46,46,46,46,46,46,46,46,47,47,47,47,47,47,47,47,47,47,47,47,47,47,47,47,47,47,47,47,47,47,47,47,47,47,47,47,47,47,47,47,47,47,47,47,47,47,47,47,48,48,48,48,48,48,48,48,48,48,48,48,48,48,48,48,48,48,48,48,48,48,48,48,48,48,48,48,48,48,48,48,48,48,48,48,48,49,49,49,49,49,49,49,49,49,49,49,49,49,49,49,49,49,49,49,49,49,49,49,49,49,49,49,49,49,49,49,49,49,49,49,49,49,49,50,50,50,50,50,50,50,50,50,50,50,50,50,50,50,50,50,50,50,50,50,50,50,50,50,50,50,50,50,51,51,51,51,51,51,51,51,51,51,51,51,51,51,51,51,51,51,51,51,51,51,51,51,51,51,51,51,51,51,51,51,51,51,51,51,51,51,51,52,52,52,52,52,52,52,52,52,52,52,52,52,52,52,52,52,52,52,52,52,52,52,52,52,52,52,52,52,52,52,52,52,52,52,53,53,53,53,53,53,53,53,53,53,53,53,53,53,53,53,53,53,53,53,53,53,53,53,53,53,53,53,53,53,53,53,53,53,53,53,54,54,54,54,54,54,54,54,54,54,54,54,54,54,54,54,54,54,54,54,54,54,54,54,54,54,54,54,54,54,54,54,54,55,55,55,55,55,55,55,55,55,55,55,55,55,55,55,55,55,55,55,55,55,55,55,55,55,56,56,56,56,56,56,56,56,56,56,56,56,56,56,56,56,56,56,56,56,56,56,56,56,56,56,56,56,56,57,57,57,57,57,57,57,57,57,57,57,57,57,57,57,57,57,57,57,57,57,57,57,57,57,57,57,57,57,58,58,58,58,58,58,58,58,58,58,58,58,58,58,58,58,58,58,58,58,58,58,58,58,58,58,58,58,58,58,59,59,59,59,59,59,59,59,59,59,59,59,59,59,59,59,59,59,59,59,59,59,59,59,59,59,60,60,60,60,60,60,60,60,60,60,60,60,60,60,60,60,60,60,60,60,60,60,60,60,60,60,60,61,61,61,61,61,61,61,61,61,61,61,61,61,61,61,61,61,61,61,61,61,61,62,62,62,62,62,62,62,62,62,62,62,62,62,62,62,62,62,62,62,62,62,62,62,62,63,63,63,63,63,63,63,63,63,63,63,63,63,63,63,63,63,63,63,63,63,63,63,63,63,63,64,64,64,64,64,64,64,64,64,64,64,64,64,64,64,64,64,64,64,64,64,64,65,65,65,65,65,65,65,65,65,65,65,65,65,65,65,65,65,65,65,65,65,65,66,66,66,66,66,66,66,66,66,66,66,66,66,66,66,66,66,66,66,66,67,67,67,67,67,67,67,67,67,67,67,67,67,67,67,67,67,67,67,67,68,68,68,68,68,68,68,68,68,68,68,68,68,68,68,68,68,68,68,69,69,69,69,69,69,69,69,69,69,69,69,69,69,69,69,69,69,69,69,70,70,70,70,70,70,70,70,70,70,70,70,70,70,70,70,70,70,70,70,71,71,71,71,71,71,71,71,71,71,71,71,71,71,71,72,72,72,72,72,72,72,72,72,72,72,72,73,73,73,73,73,73,73,73,73,73,73,73,74,74,74,74,74,74,74,74,74,74,74,74,74,74,74,75,75,75,75,75,75,75,75,75,75,75,75,76,76,76,76,76,76,76,76,76,76,76,76,77,77,77,77,77,77,77,77,77,77,77,78,78,78,78,78,78,78,78,78,78,79,79,79,79,79,79,79,79,79,80,80,80,80,80,80,80,80,80,81,81,81,81,81,81,81,81,81,82,82,82,82,82,82,82,82,83,83,83,83,83,84,84,84,84,84,85,85,85,85,86,86,86,86,87,87,87,88,88,89,89,90];
unsucc = [3,4,5,6,7,11,12,13,14,15,18,20,23,24,25,26,27,28,29,30,31,32,38,39,40,42,43,44,47,52,58,59,69,73,77,80,4,8,9,10,16,17,18,19,21,22,23,25,29,33,34,35,37,41,45,48,50,51,53,56,57,58,60,61,63,66,72,5,6,7,8,9,10,11,12,13,14,15,16,17,19,20,21,22,24,26,27,28,30,31,32,33,34,35,37,38,39,40,41,42,43,44,45,47,48,50,51,52,53,55,56,57,59,60,61,62,63,65,66,67,69,70,71,72,73,75,77,78,80,82,8,9,10,14,15,16,17,18,19,20,21,22,23,24,25,27,28,29,30,33,34,35,36,37,41,42,43,45,46,47,48,49,50,51,53,54,55,56,57,58,60,61,63,64,66,67,68,72,73,74,79,86,88,91,7,8,9,10,12,13,14,15,16,17,18,19,20,21,22,23,24,25,27,28,29,30,31,32,33,34,35,36,37,39,41,42,43,44,45,46,47,48,49,50,51,52,53,54,55,56,57,58,59,60,61,62,63,64,66,67,68,71,72,73,74,75,78,79,85,86,88,91,8,9,10,11,14,15,16,17,18,19,20,21,22,23,24,25,26,27,28,29,30,33,34,35,36,37,38,40,41,42,43,45,46,47,48,49,50,51,53,54,55,56,57,58,60,61,63,64,66,67,68,69,72,73,74,76,77,79,80,81,82,86,88,91,10,11,12,13,14,15,18,20,23,24,25,26,27,28,29,30,31,32,36,38,39,40,42,43,44,46,47,49,52,54,58,59,64,69,73,77,80,10,11,12,13,14,15,16,17,18,19,20,22,23,24,25,26,27,28,29,30,31,32,33,36,37,38,39,40,42,43,44,46,47,48,49,51,52,53,54,55,58,59,60,63,64,68,69,71,73,76,77,79,80,82,11,12,13,14,15,16,17,18,19,20,21,22,23,24,25,26,27,28,29,30,31,32,33,34,35,36,37,38,39,40,41,42,43,44,45,46,47,48,49,50,51,52,53,54,55,57,58,59,60,61,62,63,64,65,67,68,69,70,71,72,73,74,76,77,78,79,80,81,82,85,86,88,89,91,12,13,14,15,16,17,18,19,20,21,22,23,24,25,26,27,28,29,30,31,32,33,34,35,36,37,38,39,40,41,42,43,44,45,46,47,48,49,50,51,52,53,54,55,56,57,58,59,60,61,62,63,64,65,66,67,68,71,72,73,74,75,77,78,79,80,81,82,83,85,86,88,91,13,14,15,16,17,18,19,20,21,22,23,24,25,26,27,28,29,30,31,33,34,35,36,37,38,40,41,42,43,44,45,46,47,48,49,50,51,52,53,54,55,56,57,58,59,60,61,62,63,64,66,67,68,69,71,72,73,74,75,76,77,78,79,80,81,82,85,86,88,91,14,15,16,17,18,19,20,21,22,23,24,25,26,27,28,29,30,31,32,33,34,35,36,37,38,39,40,41,42,43,45,46,47,48,49,50,51,53,54,55,56,57,58,59,60,61,62,63,64,65,66,67,68,69,70,72,73,74,76,77,79,80,81,82,86,88,89,91,16,17,18,19,20,21,22,23,25,26,27,28,29,30,31,32,33,34,35,36,37,38,39,40,41,43,44,45,46,47,48,49,50,51,52,53,55,56,57,58,59,60,61,62,63,64,65,66,67,68,69,70,71,72,74,75,76,78,83,85,86,88,91,16,17,18,19,20,21,22,23,25,26,27,28,29,30,31,32,33,34,35,36,37,38,39,40,41,42,43,44,45,46,47,48,49,50,51,52,53,54,55,56,57,58,59,60,61,62,63,64,65,66,67,68,69,70,71,72,74,75,76,78,79,83,84,85,86,88,91,18,20,21,23,24,25,26,27,28,29,30,31,32,34,35,36,38,39,40,41,42,43,44,45,46,47,49,50,52,54,56,58,59,61,64,65,66,69,70,72,73,74,77,78,80,85,18,19,20,21,23,24,25,26,27,28,29,30,31,32,33,34,35,36,37,38,39,40,41,42,43,44,45,46,47,48,49,50,51,52,53,54,56,57,58,59,60,61,62,63,64,65,66,69,70,72,73,74,77,78,79,80,82,85,86,19,20,21,22,24,26,27,28,30,31,32,33,34,35,37,38,39,40,41,42,43,44,45,47,48,50,51,52,53,55,56,57,59,60,61,62,63,65,66,67,69,70,71,72,73,75,77,78,80,82,20,21,22,23,24,25,26,27,28,29,30,31,32,33,34,35,36,37,38,39,40,41,42,43,44,45,46,47,48,49,50,52,53,54,55,56,57,58,59,61,62,63,64,65,66,67,68,69,70,71,72,73,74,75,76,77,78,80,81,82,83,85,86,88,91,21,22,23,24,25,26,29,31,32,33,34,35,37,38,40,41,42,44,45,48,50,51,52,53,56,57,58,59,60,61,62,63,66,69,72,73,77,78,80,82,22,23,24,25,26,27,28,29,30,31,32,33,36,37,38,39,40,42,43,44,46,47,48,49,51,52,53,54,55,58,59,60,63,64,68,69,71,73,76,77,79,80,82,23,24,25,26,27,28,29,30,31,32,33,34,35,36,37,38,39,40,41,42,43,44,45,46,47,48,49,50,51,52,53,54,56,57,58,59,60,61,62,63,64,65,66,68,69,70,72,73,74,76,77,78,79,80,82,85,86,24,26,27,28,30,31,32,33,34,35,37,38,39,40,41,42,43,44,45,47,48,50,51,52,53,55,56,57,59,60,61,62,63,65,66,67,69,70,71,72,73,75,77,78,80,82,83,25,26,27,28,29,30,31,32,33,34,35,36,37,38,39,40,41,42,43,44,45,46,47,48,49,50,51,52,53,54,55,56,57,58,59,60,61,62,63,64,65,66,67,68,69,70,71,72,73,74,75,76,77,78,79,80,81,83,84,85,86,87,88,89,91,26,27,28,29,30,31,32,33,34,35,36,37,38,39,40,41,42,43,44,45,46,47,48,49,50,51,52,53,54,55,56,57,58,59,60,61,62,63,64,65,66,67,68,69,70,71,72,73,74,75,76,77,78,79,80,81,82,83,84,85,86,87,88,89,91,27,28,29,30,31,32,33,34,35,36,37,39,41,42,43,44,45,46,47,48,49,50,51,52,53,54,55,56,57,58,59,60,61,62,63,64,66,67,68,69,70,71,72,73,74,75,76,77,78,79,80,81,85,86,88,89,91,29,31,32,33,34,35,37,38,40,41,42,44,45,48,50,51,52,53,56,57,58,59,60,61,62,63,66,69,72,73,77,78,80,82,85,29,31,32,33,34,35,37,38,39,40,41,42,44,45,48,50,51,52,53,55,56,57,58,59,60,61,62,63,65,66,67,69,70,71,72,73,75,77,78,80,82,83,85,30,31,32,33,34,35,37,38,39,40,41,42,43,44,45,47,48,50,51,52,53,55,56,57,58,59,60,61,62,63,65,66,67,69,70,71,72,73,75,77,78,80,82,83,85,31,32,33,34,35,37,38,39,40,41,42,43,44,45,47,48,50,51,52,53,55,56,57,58,59,60,61,62,63,65,66,67,69,70,71,72,73,75,77,78,80,82,83,85,32,33,34,35,36,37,38,39,40,41,42,43,44,45,46,47,48,49,50,51,52,53,54,55,56,57,58,60,61,63,64,65,66,67,68,69,70,71,72,73,74,76,77,78,79,80,81,82,85,86,88,89,91,33,34,35,36,37,38,40,41,42,43,44,45,46,47,48,49,50,51,52,53,54,55,56,57,58,59,60,61,62,63,64,66,67,68,69,71,72,73,74,75,76,77,78,79,80,81,82,85,86,88,91,34,35,36,38,39,40,41,42,43,44,45,46,47,49,50,51,52,54,55,56,58,59,60,61,64,65,66,68,69,70,71,72,73,74,76,77,78,79,80,85,36,37,38,39,40,42,43,44,46,47,48,49,51,52,53,54,55,56,58,59,60,63,64,66,68,69,71,73,76,77,79,80,82,36,37,38,39,40,42,43,44,45,46,47,48,49,50,51,52,53,54,55,56,57,58,59,60,62,63,64,66,67,68,69,71,73,75,76,77,79,80,81,82,88,37,38,39,40,41,42,43,44,45,47,48,50,51,52,53,55,56,57,58,59,60,61,62,63,65,66,67,69,70,71,72,73,75,77,78,80,82,83,85,38,39,40,41,42,43,44,45,46,47,48,49,50,51,52,53,54,55,56,57,58,59,60,61,63,64,65,66,67,68,69,70,71,72,73,74,76,77,78,79,80,81,82,85,86,88,89,91,39,41,42,43,44,45,46,47,48,49,50,51,52,53,54,55,56,57,58,59,60,61,62,63,64,66,67,68,69,70,71,72,73,74,75,76,77,78,79,80,81,82,85,86,88,89,91,40,41,42,43,44,45,46,47,48,49,50,51,52,53,54,55,56,57,58,59,60,61,62,63,64,66,67,68,69,71,72,73,74,75,76,77,78,79,80,81,82,85,86,88,91,41,42,43,44,45,46,47,48,49,50,51,52,53,54,55,56,57,58,59,60,61,62,63,64,66,67,68,69,70,71,72,73,74,75,76,77,78,79,80,81,82,85,86,88,89,91,42,43,44,45,46,47,48,49,50,51,52,53,54,55,56,57,58,59,60,61,62,63,64,65,66,67,68,69,71,72,73,74,75,76,77,78,79,80,81,82,83,84,85,86,87,88,90,91,43,44,45,46,47,48,49,50,51,52,53,55,56,57,58,59,60,61,62,63,64,65,66,67,68,69,70,71,72,73,74,75,76,77,78,80,81,82,83,85,86,88,89,91,44,45,46,47,48,49,50,51,52,53,54,55,56,57,58,59,60,61,62,63,64,65,66,67,68,69,70,71,72,73,74,75,76,77,78,79,80,81,82,83,84,85,86,87,88,89,90,45,46,47,48,49,50,51,53,54,55,56,57,58,59,60,61,62,63,64,65,66,67,68,69,70,71,72,73,74,75,76,77,79,80,81,82,83,84,86,88,89,91,46,47,48,49,50,51,52,53,54,55,56,57,58,59,60,61,62,63,64,65,66,67,68,69,70,71,72,73,74,75,76,77,78,79,80,81,82,83,84,85,87,88,89,90,47,48,50,51,52,53,54,55,56,57,58,59,60,61,62,63,65,66,67,69,70,71,72,73,75,77,78,79,80,81,82,83,85,89,48,49,50,51,52,53,54,55,56,57,58,59,60,61,62,63,64,65,66,67,68,69,70,71,72,73,74,75,77,78,79,80,81,82,83,85,86,88,89,91,49,50,51,52,54,55,56,57,58,59,60,61,62,64,65,66,67,68,69,70,71,72,73,74,75,76,77,78,79,80,81,83,84,85,87,88,89,50,51,52,53,54,55,56,57,58,59,60,61,62,63,64,65,66,67,68,69,70,71,72,73,75,76,77,78,79,80,81,82,83,84,85,87,89,90,51,52,53,54,55,56,58,59,60,61,63,64,65,66,68,69,70,71,72,73,74,76,77,78,79,80,82,85,86,52,53,54,55,56,57,58,59,60,61,62,63,64,65,66,67,68,69,70,71,72,73,74,75,76,77,78,79,80,81,82,83,84,85,86,87,88,90,91,53,54,55,56,57,58,59,60,61,62,63,64,65,66,67,68,69,70,71,72,73,74,75,76,77,79,80,81,82,83,84,86,88,89,91,54,55,56,57,58,59,60,61,62,63,64,65,66,67,68,69,70,71,72,73,74,75,76,77,78,79,80,81,82,83,84,85,87,88,89,90,55,56,57,58,59,60,61,62,63,64,65,66,67,68,69,70,71,72,73,74,75,76,77,78,80,81,82,83,85,86,88,89,91,56,57,58,59,60,61,62,63,64,65,66,68,69,70,72,73,74,76,77,78,79,80,82,85,86,57,58,59,60,61,62,63,64,65,67,68,69,70,71,72,73,74,76,77,78,79,80,81,82,85,86,88,89,91,58,59,60,61,62,63,64,65,66,68,69,70,71,72,73,74,75,76,77,78,79,80,82,83,84,85,86,87,90,59,60,61,62,63,64,65,66,67,68,69,70,71,72,73,74,75,76,77,78,79,80,81,82,83,84,86,88,89,91,60,61,63,64,65,66,67,68,69,70,71,72,73,74,76,77,78,79,80,81,82,85,86,88,89,91,61,62,63,64,65,66,67,68,69,70,71,72,73,74,75,76,77,78,80,81,82,83,85,86,88,89,91,62,63,64,65,66,67,68,69,70,71,73,75,76,77,79,80,81,82,83,84,88,89,63,64,65,66,67,68,69,70,71,72,73,74,76,77,78,79,80,81,82,85,86,88,89,91,64,65,66,67,68,69,70,71,72,73,74,75,76,77,78,79,80,81,83,84,85,86,87,88,89,91,65,66,67,69,70,71,72,73,74,75,77,78,79,80,81,82,83,85,86,88,89,91,66,67,68,69,70,71,72,73,74,75,76,77,78,79,80,81,82,85,86,88,89,91,67,68,69,70,71,72,73,74,76,77,78,79,80,81,82,85,86,88,89,91,68,69,70,71,72,73,74,75,76,77,78,79,80,82,83,84,85,86,87,90,69,70,71,72,73,74,75,77,78,79,80,81,82,83,85,86,88,89,91,71,72,73,74,75,76,77,78,79,80,81,82,83,84,85,86,87,88,90,91,71,72,73,74,75,76,77,78,79,80,81,82,83,84,85,86,87,88,90,91,72,73,74,76,77,78,79,80,81,82,85,86,88,89,91,73,75,76,77,79,80,81,82,83,84,88,89,74,75,76,78,79,82,83,84,85,86,88,91,75,76,77,78,79,80,81,82,83,84,85,87,88,89,90,76,77,78,79,80,81,82,85,86,88,89,91,77,78,79,80,81,82,83,85,86,88,89,91,78,79,82,83,84,85,86,87,88,90,91,79,80,81,82,83,84,86,88,89,91,80,81,82,83,85,86,88,89,91,82,83,84,85,86,87,88,90,91,82,83,84,85,86,87,88,90,91,83,84,85,86,87,88,89,91,85,86,88,89,91,85,86,88,89,91,86,88,89,91,87,88,89,90,88,89,91,89,90,90,91,91];

USEFUL_RES = [{},
	{1,4,5,7,9,10,12},
	{4,5,9,10},
	{2,3,7,11},
	{1,2,3,7,8,11},
	{2,3,7,11},
	{1,2,3,7,10,11,12},
	{1,2,3,7,8,11},
	{1,4,5,6,9,10},
	{2,3,7,11},
	{1,2,3,7,8,11},
	{3,4,5,6,7,9,10,11},
	{1,2,3,7,10,11},
	{2,3,7,11},
	{3,4,5,6,7,9,10,11},
	{1,2,3,4,5,6,7,9,10,11},
	{1,2,3,7,8,11},
	{1,2,3,4,5,6,7,9,10,11},
	{2,3,4,5,6,7,9,10,11},
	{4,5,9,10},
	{1,2,3,4,5,6,7,9,10,11,12},
	{1,2,3,4,5,7,9,10,11},
	{1,4,5,7,9,10,12},
	{1,2,3,7,8,10,11,12},
	{3,7,11},
	{1,2,3,4,5,7,9,10,11},
	{4,5,6,9,10},
	{1,3,7,9,10,11,12},
	{2,3,4,5,7,9,10,11},
	{3,4,5,7,9,10,11},
	{3,7,11},
	{1,4,5,6,7,9,10},
	{2,3,7,11},
	{2,3,7,11},
	{1,4,5,6,7,9,10,12},
	{2,3,4,5,7,9,10,11},
	{1,4,5,6,7,9,10},
	{3,7,9,11},
	{1,2,3,7,8,11},
	{1,2,3,7,8,11},
	{1,2,3,7,10,11},
	{1,7,9,10},
	{1,4,5,6,7,9,10,12},
	{2,3,4,5,7,9,10,11},
	{1,2,3,7,11},
	{1,2,3,7,10,11},
	{1,4,5,6,7,9,10},
	{1,2,3,7,10,11},
	{2,3,4,5,7,9,10,11},
	{2,3,4,5,6,7,9,10,11},
	{1,4,5,6,7,9,10,12},
	{1,2,3,4,5,6,7,8,9,10,11},
	{1,2,3,4,5,6,7,8,9,10,11},
	{1,2,3,7,8,10,11},
	{1},
	{1,2,3,4,5,6,7,8,9,10,11},
	{1,3,4,5,7,9,10,11},
	{1,3,4,5,7,9,10,11},
	{3,4,5,6,7,9,10,11},
	{1,7,10},
	{4,5,6,9,10},
	{1,2,3,7,8,11},
	{4,5,6,9,10},
	{4,5,6,9,10},
	{1,4,5,6,7,9,10,12},
	{1,2,3,4,5,6,7,8,9,10,11},
	{2,3,7,11},
	{1,2,3,4,5,6,7,9,10,11},
	{1,4,5,6,7,9,10,12},
	{3,7,11},
	{1,4,5,7,9,10},
	{2,3,4,5,6,7,9,10,11},
	{1,4,5,6,7,9,10,12},
	{1,2,3,7,8,11},
	{3,4,5,7,9,10,11},
	{2,3,4,5,6,7,9,10,11},
	{4,5,6,9,10},
	{2,3,7,9,11},
	{1,2,3,4,5,6,7,8,9,10,11},
	{2,3,4,5,6,7,9,10,11},
	{1,2,3,7,8,9,11},
	{1},
	{2,3,7,11},
	{1,2,3,4,5,6,7,9,10,11},
	{4,5,6,9,10},
	{2,3,4,5,6,7,9,10,11},
	{1,2,3,7,8,11},
	{2,3,4,5,6,7,9,10,11},
	{9},
	{1,4,5,7,9,10},
	{4,5,9,10},
	{}];

POTENTIAL_ACT = [{2,5,7,8,9,11,13,16,17,18,21,22,23,24,26,28,32,35,37,39,40,41,42,43,45,46,47,48,51,52,53,54,55,56,57,58,60,62,65,66,68,69,71,73,74,79,81,82,84,87,90},
	{4,5,6,7,8,10,11,13,14,16,17,18,19,21,22,24,26,29,33,34,36,39,40,41,44,45,46,48,49,50,52,53,54,56,62,66,67,68,72,74,76,78,79,80,81,83,84,86,87,88},
	{4,5,6,7,8,10,11,12,13,14,15,16,17,18,19,21,22,24,25,26,28,29,30,31,33,34,36,38,39,40,41,44,45,46,48,49,50,52,53,54,56,57,58,59,62,66,67,68,70,72,74,75,76,78,79,80,81,83,84,86,87,88},
	{2,3,9,12,15,16,18,19,20,21,22,23,26,27,29,30,32,35,36,37,43,44,47,49,50,51,52,53,56,57,58,59,61,63,64,65,66,68,69,71,72,73,75,76,77,79,80,84,85,86,88,90,91},
	{2,3,9,12,15,16,18,19,20,21,22,23,26,27,29,30,32,35,36,37,43,44,47,49,50,51,52,53,56,57,58,59,61,63,64,65,66,68,69,71,72,73,75,76,77,79,80,84,85,86,88,90,91},
	{9,12,15,16,18,19,21,27,32,35,37,43,47,50,51,52,53,56,59,61,63,64,65,66,68,69,72,73,76,77,79,80,84,85,86,88},
	{2,4,5,6,7,8,10,11,12,13,14,15,16,17,18,19,21,22,23,24,25,26,28,29,30,31,32,33,34,35,36,37,38,39,40,41,42,43,44,45,46,47,48,49,50,51,52,53,54,56,57,58,59,60,62,65,66,67,68,69,70,71,72,73,74,75,76,78,79,80,81,83,84,86,87,88,90},
	{5,8,11,17,24,39,40,52,53,54,56,62,66,74,79,81,87},
	{2,3,9,12,15,16,18,19,20,21,22,23,26,27,28,29,30,32,35,36,37,38,42,43,44,47,49,50,51,52,53,56,57,58,59,61,63,64,65,66,68,69,71,72,73,75,76,77,78,79,80,81,84,85,86,88,89,90,91},
	{2,3,7,9,12,13,15,16,18,19,20,21,22,23,24,26,27,28,29,30,32,35,36,37,41,42,43,44,46,47,48,49,50,51,52,53,54,56,57,58,59,60,61,63,64,65,66,68,69,71,72,73,75,76,77,79,80,84,85,86,88,90,91},
	{4,5,6,7,8,10,11,12,13,14,15,16,17,18,19,21,22,24,25,26,28,29,30,31,33,34,36,38,39,40,41,44,45,46,48,49,50,52,53,54,56,57,58,59,62,66,67,68,70,72,74,75,76,78,79,80,81,83,84,86,87,88},
	{2,7,21,23,24,28,35,43,51,65,69,73}];
